Route #1: 26 58 72 39 9 32 44 3 40
Route #2: 12 17 51 16 63 33 43 1 73 62
Route #3: 30 28 74 29 45 27 52 8 46
Route #4: 35 14 59 66 65 11 53
Route #5: 19 54 13 57 15 37 20 70 60 71 69 36 5
Route #6: 48 47 21 61 22 64 42 41 56 23
Route #7: 49 24 18 50 25 55 31 10 38 7
Route #8: 67 34 4 68 2 6 75
Cost 812